2242.3
0 17 18 19 32 34 3 6 12 2 10 9 5 7 4 8 11 14 15 13 16 28 29 31 26 27 30 1 22 23 24 25 21 20 0
0 70 33 65 46 63 79 42 41 44 43 45 39 38 60 37 40 36 35 61 59 57 56 55 54 58 53 62 50 52 51 48 49 64 47 0
0 68 69 81 80 86 84 85 87 88 89 90 78 67 71 66 75 77 76 74 73 72 82 0
0 116 83 92 104 102 101 99 95 98 97 96 100 93 94 91 0
0 106 107 108 109 110 111 112 113 115 117 133 103 105 118 0
0 122 124 128 126 125 123 127 129 121 120 114 119 134 0
0 132 131 130 0
